18771
23 3679
57
3418 3160 3396 3395 6134 6133 3158 3388 1445 1443 1438 1435 1434 3361 1110 2392 3082 3081 3445 3444 3441 3439 3438 3437 3435 3432 3430 3429 3426 3425 3423 3422 3421 1913 3406 3400 3159 3394 3391 6161 3390 1449 1448 1447 1446 1444 1442 1441 1440 1439 1436 1709 1109 1108 239 47 1433 
0 0
1704.16
